p td 205 1330
1 129
1 2
1 3
1 5
1 6
1 7
1 8
1 13
1 16
1 19
1 20
1 21
1 25
1 26
1 27
1 33
1 34
1 37
1 38
1 39
1 40
1 45
1 46
1 47
1 50
1 55
1 189
1 67
1 68
1 69
1 74
1 76
1 78
1 82
1 105
1 106
1 107
1 108
1 110
2 3
2 5
2 6
2 7
2 8
2 12
2 13
2 144
2 20
2 21
2 26
2 27
2 33
2 34
2 37
2 38
2 39
2 40
2 169
2 45
2 46
2 47
2 50
2 55
2 67
2 68
2 69
2 129
2 74
2 76
2 78
2 81
2 82
2 16
2 105
2 106
2 107
2 108
2 110
3 129
3 4
3 5
3 6
3 7
3 8
3 12
3 13
3 16
3 20
3 21
3 25
3 26
3 27
3 33
3 34
3 37
3 38
3 39
3 40
3 45
3 46
3 47
3 50
3 55
3 67
3 68
3 69
3 74
3 75
3 76
3 77
3 78
3 82
3 105
3 106
3 107
3 108
3 110
4 16
4 74
4 76
4 5
5 6
5 7
5 8
5 13
5 16
5 20
5 174
5 26
5 27
5 33
5 34
5 163
5 37
5 38
5 39
5 40
5 45
5 46
5 47
5 176
5 50
5 55
5 67
5 68
5 69
5 129
5 74
5 76
5 78
5 82
5 105
5 106
5 107
5 108
5 110
5 118
5 21
6 7
6 8
6 13
6 144
6 20
6 21
6 26
6 27
6 167
6 33
6 34
6 163
6 37
6 38
6 39
6 40
6 45
6 46
6 47
6 50
6 55
6 189
6 67
6 68
6 69
6 129
6 74
6 76
6 78
6 82
6 16
6 105
6 106
6 107
6 108
6 110
6 168
7 129
7 8
7 13
7 16
7 19
7 20
7 21
7 25
7 26
7 27
7 33
7 34
7 37
7 38
7 39
7 40
7 45
7 46
7 47
7 50
7 55
7 189
7 67
7 68
7 69
7 74
7 76
7 78
7 82
7 105
7 106
7 107
7 108
7 110
8 129
8 132
8 9
8 13
8 16
8 19
8 20
8 21
8 153
8 26
8 27
8 33
8 34
8 37
8 38
8 39
8 40
8 45
8 46
8 47
8 50
8 55
8 67
8 68
8 69
8 74
8 76
8 78
8 81
8 82
8 105
8 106
8 107
8 108
8 110
8 126
9 129
9 82
9 37
9 108
9 13
9 46
9 50
9 20
10 140
10 11
10 139
11 139
11 140
12 68
12 39
12 105
12 74
12 76
12 16
13 129
13 16
13 20
13 21
13 26
13 27
13 33
13 34
13 37
13 38
13 39
13 40
13 45
13 46
13 47
13 50
13 55
13 66
13 67
13 68
13 69
13 74
13 76
13 78
13 82
13 105
13 106
13 107
13 108
13 110
13 118
13 123
14 97
14 203
14 71
14 43
14 44
14 15
14 85
14 86
14 121
14 124
14 93
15 97
15 70
15 71
15 136
15 44
15 121
16 129
16 20
16 21
16 25
16 26
16 27
16 33
16 34
16 37
16 38
16 39
16 40
16 45
16 46
16 47
16 50
16 55
16 67
16 68
16 69
16 74
16 75
16 76
16 77
16 78
16 82
16 105
16 106
16 107
16 108
16 110
17 72
17 111
17 112
17 18
17 87
17 61
17 30
18 131
18 103
18 43
18 44
18 173
18 111
18 112
18 150
18 87
18 159
19 37
19 82
19 50
19 20
19 55
19 26
19 27
20 132
20 129
20 21
20 153
20 26
20 27
20 33
20 34
20 37
20 38
20 39
20 40
20 45
20 46
20 47
20 50
20 55
20 67
20 68
20 69
20 74
20 76
20 78
20 81
20 82
20 105
20 106
20 107
20 108
20 110
20 126
21 174
21 22
21 153
21 26
21 27
21 33
21 34
21 37
21 38
21 39
21 129
21 169
21 45
21 46
21 47
21 50
21 55
21 67
21 68
21 69
21 74
21 75
21 76
21 78
21 82
21 105
21 106
21 107
21 108
21 109
21 110
21 40
21 123
22 33
22 34
22 67
22 69
22 106
22 107
22 47
23 162
23 73
23 53
23 54
23 183
23 24
23 60
24 162
24 73
24 53
24 54
24 183
24 60
25 74
25 76
25 55
25 26
25 27
26 27
26 33
26 34
26 37
26 38
26 39
26 40
26 45
26 46
26 47
26 50
26 55
26 189
26 67
26 68
26 69
26 129
26 74
26 76
26 78
26 82
26 105
26 106
26 107
26 108
26 110
27 129
27 33
27 34
27 37
27 38
27 39
27 40
27 45
27 46
27 47
27 50
27 55
27 189
27 67
27 68
27 69
27 74
27 76
27 78
27 82
27 105
27 106
27 107
27 108
27 110
28 161
28 130
28 131
28 70
28 112
28 113
28 83
28 149
28 56
28 57
28 156
28 29
29 51
29 98
29 70
29 156
29 172
29 112
29 83
29 52
29 85
29 57
29 154
30 128
30 99
30 72
30 115
30 116
30 121
30 61
30 127
31 32
31 133
31 188
31 117
31 91
31 92
31 158
32 133
32 188
32 117
32 91
32 92
32 158
33 129
33 34
33 37
33 38
33 39
33 40
33 45
33 46
33 47
33 50
33 55
33 67
33 68
33 69
33 74
33 76
33 77
33 78
33 82
33 105
33 106
33 107
33 108
33 110
33 168
33 126
34 129
34 37
34 38
34 39
34 40
34 45
34 46
34 47
34 50
34 55
34 67
34 68
34 69
34 74
34 76
34 77
34 78
34 82
34 105
34 106
34 107
34 108
34 110
34 168
34 126
35 96
35 36
35 148
35 152
35 122
35 94
36 96
36 148
36 152
36 122
36 94
37 132
37 153
37 38
37 39
37 40
37 45
37 46
37 47
37 50
37 55
37 67
37 68
37 69
37 129
37 74
37 76
37 78
37 81
37 82
37 105
37 106
37 107
37 108
37 110
37 126
38 167
38 163
38 39
38 40
38 45
38 46
38 47
38 50
38 55
38 189
38 67
38 68
38 69
38 129
38 74
38 76
38 78
38 82
38 144
38 105
38 106
38 107
38 108
38 110
38 168
39 129
39 144
39 40
39 169
39 45
39 46
39 47
39 50
39 55
39 67
39 68
39 69
39 74
39 76
39 78
39 81
39 82
39 105
39 106
39 107
39 108
39 110
40 129
40 107
40 144
40 163
40 168
40 45
40 46
40 47
40 50
40 55
40 189
40 67
40 68
40 69
40 74
40 76
40 78
40 82
40 105
40 106
40 167
40 108
40 110
41 42
41 204
42 204
43 97
43 71
43 44
43 111
43 112
43 87
43 121
44 97
44 131
44 103
44 173
44 203
44 121
44 71
45 132
45 167
45 46
45 47
45 176
45 50
45 55
45 66
45 67
45 68
45 69
45 129
45 74
45 76
45 78
45 82
45 105
45 106
45 107
45 108
45 109
45 110
46 129
46 47
46 50
46 55
46 66
46 67
46 68
46 69
46 74
46 76
46 78
46 82
46 105
46 106
46 107
46 108
46 110
46 118
46 123
47 153
47 169
47 174
47 50
47 55
47 67
47 68
47 69
47 129
47 74
47 75
47 76
47 78
47 82
47 105
47 106
47 107
47 108
47 109
47 110
47 123
48 49
48 146
48 147
48 197
49 146
49 147
49 197
50 129
50 132
50 153
50 55
50 67
50 68
50 69
50 74
50 76
50 78
50 81
50 82
50 105
50 106
50 107
50 108
50 110
50 126
51 160
51 98
51 71
51 72
51 172
51 52
51 85
51 154
51 156
52 136
52 85
52 70
53 162
53 73
53 183
53 54
53 60
54 162
54 73
54 183
54 60
55 129
55 189
55 67
55 68
55 69
55 74
55 76
55 78
55 82
55 105
55 106
55 107
55 108
55 110
56 128
56 130
56 131
56 124
56 113
56 57
57 128
57 70
57 124
57 203
57 157
57 112
57 83
57 150
58 59
58 205
59 205
60 162
60 73
60 183
61 97
61 165
61 102
61 113
61 72
61 142
61 87
61 127
62 177
62 179
62 166
62 63
63 177
63 179
63 166
64 88
64 65
64 180
64 145
64 95
65 88
65 95
65 180
65 145
66 129
66 108
66 110
67 129
67 174
67 153
67 169
67 68
67 69
67 74
67 75
67 76
67 78
67 82
67 105
67 106
67 107
67 108
67 109
67 110
67 123
68 129
68 169
68 69
68 74
68 76
68 78
68 81
68 82
68 144
68 105
68 106
68 107
68 108
68 110
69 129
69 74
69 76
69 77
69 78
69 82
69 105
69 106
69 107
69 108
69 110
69 168
69 126
70 104
70 112
70 136
70 83
70 84
71 160
71 97
71 203
71 72
71 121
72 160
72 127
73 162
73 183
74 129
74 75
74 76
74 77
74 78
74 82
74 105
74 106
74 107
74 108
74 110
75 107
75 76
76 129
76 77
76 78
76 82
76 105
76 106
76 107
76 108
76 110
77 106
78 129
78 144
78 167
78 163
78 168
78 189
78 82
78 105
78 106
78 107
78 108
78 110
79 80
79 155
79 125
80 155
80 125
81 105
81 82
82 132
82 153
82 129
82 105
82 106
82 107
82 108
82 110
82 126
83 160
83 134
83 172
83 142
83 175
83 112
83 115
83 84
83 149
83 143
84 160
84 136
84 142
84 143
84 115
85 98
85 124
85 172
85 93
85 86
85 154
85 156
86 161
86 102
86 103
86 104
86 175
86 114
86 116
86 154
86 124
86 93
86 127
87 97
87 165
87 102
87 113
87 142
87 111
87 112
87 150
87 159
88 145
88 95
88 180
89 90
89 141
90 141
91 133
91 188
91 117
91 92
91 158
92 133
92 117
92 188
92 158
93 98
93 99
93 165
93 134
93 135
93 173
93 114
93 124
93 157
93 159
94 96
94 148
94 152
94 122
95 180
95 145
96 148
96 152
96 122
97 203
97 165
97 102
97 142
97 113
97 121
98 99
98 165
98 135
98 173
99 128
99 165
99 134
99 135
99 173
99 157
99 114
99 115
99 116
99 121
99 159
100 120
100 119
100 101
100 182
100 181
101 120
101 181
101 182
101 119
102 165
102 161
102 104
102 103
102 142
102 175
102 113
102 114
102 116
102 154
102 127
103 161
103 131
103 114
103 104
103 173
103 175
103 116
103 154
103 127
104 136
104 116
105 144
105 169
105 129
105 106
105 107
105 108
105 110
106 129
106 168
106 107
106 108
106 110
106 126
107 129
107 153
107 169
107 174
107 108
107 109
107 110
107 123
108 129
108 110
108 118
108 123
109 110
110 132
110 167
110 176
110 129
111 130
111 135
111 136
111 143
111 112
111 150
111 159
112 150
112 159
113 130
113 131
113 165
113 161
113 156
113 142
113 149
114 165
114 135
114 173
114 116
115 128
115 160
115 134
115 172
115 142
115 175
115 116
115 149
115 121
115 143
116 128
116 161
116 175
116 121
116 154
116 127
117 133
117 188
117 158
118 129
119 120
119 181
119 182
120 181
120 182
121 128
121 203
122 148
122 152
123 129
124 128
124 150
124 203
124 157
125 155
128 203
128 150
128 157
130 161
130 131
130 135
130 136
130 143
130 149
130 156
131 161
131 173
131 149
131 156
133 188
133 158
134 160
134 165
134 135
134 173
134 142
134 143
135 165
135 136
135 173
135 143
135 157
135 159
136 143
137 138
137 199
137 164
137 178
137 151
138 178
138 199
138 164
138 151
139 140
142 160
142 165
142 172
142 175
142 149
142 143
143 160
143 172
143 149
143 175
145 180
146 147
146 197
147 197
148 152
149 160
151 164
151 178
151 199
157 165
157 173
158 188
159 165
159 173
160 172
160 175
162 183
164 178
164 199
165 173
166 177
166 179
170 171
177 179
178 199
181 182
184 200
184 185
184 198
185 200
185 198
186 192
186 193
186 187
187 192
187 193
190 191
192 193
194 195
194 196
195 196
198 200
201 202
